NAME: ETSP
COMMENT: Generated by write_TSPLIB (R package TSP)
TYPE: TSP
DIMENSION: 200
EDGE_WEIGHT_TYPE: EUC_2D
NODE_COORD_SECTION
1 4.542000e+00 1.945400e+01
2 4.542000e+00 3.836200e+01
3 4.542000e+00 7.617900e+01
4 4.542000e+00 9.508700e+01
5 4.542000e+00 1.139950e+02
6 4.542000e+00 1.518120e+02
7 4.542000e+00 1.707200e+02
8 4.542000e+00 1.896280e+02
9 4.542000e+00 2.085360e+02
10 1.000000e+01 1.000000e+01
11 1.000000e+01 2.890800e+01
12 1.000000e+01 4.781600e+01
13 1.000000e+01 6.672500e+01
14 1.000000e+01 1.045410e+02
15 1.000000e+01 1.612660e+02
16 1.000000e+01 1.801740e+02
17 1.000000e+01 2.179900e+02
18 1.545800e+01 1.945400e+01
19 1.545800e+01 3.836200e+01
20 1.545800e+01 7.617900e+01
21 1.545800e+01 1.139950e+02
22 1.545800e+01 1.518120e+02
23 1.545800e+01 2.085360e+02
24 2.091700e+01 1.000000e+01
25 2.091700e+01 4.781600e+01
26 2.091700e+01 6.672500e+01
27 2.091700e+01 8.563300e+01
28 2.091700e+01 1.234490e+02
29 2.091700e+01 1.423580e+02
30 2.091700e+01 1.612660e+02
31 2.091700e+01 1.801740e+02
32 2.091700e+01 1.990820e+02
33 2.091700e+01 2.179900e+02
34 2.637500e+01 1.945400e+01
35 2.637500e+01 3.836200e+01
36 2.637500e+01 5.727100e+01
37 2.637500e+01 9.508700e+01
38 2.637500e+01 1.139950e+02
39 2.637500e+01 1.518120e+02
40 2.637500e+01 2.085360e+02
41 3.183300e+01 1.000000e+01
42 3.183300e+01 2.890800e+01
43 3.183300e+01 4.781600e+01
44 3.183300e+01 6.672500e+01
45 3.183300e+01 8.563300e+01
46 3.183300e+01 1.045410e+02
47 3.183300e+01 1.234490e+02
48 3.183300e+01 1.423580e+02
49 3.183300e+01 1.801740e+02
50 3.183300e+01 1.990820e+02
51 3.183300e+01 2.179900e+02
52 3.729200e+01 7.617900e+01
53 3.729200e+01 9.508700e+01
54 3.729200e+01 1.139950e+02
55 3.729200e+01 1.329030e+02
56 3.729200e+01 1.518120e+02
57 3.729200e+01 1.707200e+02
58 3.729200e+01 1.896280e+02
59 3.729200e+01 2.085360e+02
60 4.275000e+01 1.000000e+01
61 4.275000e+01 2.890800e+01
62 4.275000e+01 8.563300e+01
63 4.275000e+01 1.234490e+02
64 4.275000e+01 1.423580e+02
65 4.275000e+01 1.612660e+02
66 4.275000e+01 1.801740e+02
67 4.275000e+01 1.990820e+02
68 4.275000e+01 2.179900e+02
69 4.820800e+01 1.945400e+01
70 4.820800e+01 3.836200e+01
71 4.820800e+01 5.727100e+01
72 4.820800e+01 1.329030e+02
73 4.820800e+01 1.707200e+02
74 4.820800e+01 1.896280e+02
75 4.820800e+01 2.085360e+02
76 5.366700e+01 2.890800e+01
77 5.366700e+01 4.781600e+01
78 5.366700e+01 6.672500e+01
79 5.366700e+01 8.563300e+01
80 5.366700e+01 1.045410e+02
81 5.366700e+01 1.423580e+02
82 5.366700e+01 1.612660e+02
83 5.366700e+01 1.801740e+02
84 5.912500e+01 5.727100e+01
85 5.912500e+01 7.617900e+01
86 5.912500e+01 9.508700e+01
87 5.912500e+01 1.139950e+02
88 5.912500e+01 1.329030e+02
89 5.912500e+01 1.518120e+02
90 5.912500e+01 1.707200e+02
91 5.912500e+01 1.896280e+02
92 5.912500e+01 2.085360e+02
93 6.458300e+01 1.000000e+01
94 6.458300e+01 2.890800e+01
95 6.458300e+01 6.672500e+01
96 6.458300e+01 1.045410e+02
97 6.458300e+01 1.234490e+02
98 6.458300e+01 1.423580e+02
99 6.458300e+01 1.612660e+02
100 6.458300e+01 1.801740e+02
101 6.458300e+01 1.990820e+02
102 7.004200e+01 3.836200e+01
103 7.004200e+01 9.508700e+01
104 7.004200e+01 1.139950e+02
105 7.004200e+01 1.329030e+02
106 7.004200e+01 1.518120e+02
107 7.004200e+01 1.707200e+02
108 7.004200e+01 1.896280e+02
109 7.550000e+01 1.000000e+01
110 7.550000e+01 4.781600e+01
111 7.550000e+01 8.563300e+01
112 7.550000e+01 1.045410e+02
113 7.550000e+01 1.234490e+02
114 7.550000e+01 1.423580e+02
115 7.550000e+01 1.612660e+02
116 7.550000e+01 1.990820e+02
117 7.550000e+01 2.179900e+02
118 8.095800e+01 1.945400e+01
119 8.095800e+01 3.836200e+01
120 8.095800e+01 9.508700e+01
121 8.095800e+01 1.329030e+02
122 8.095800e+01 1.707200e+02
123 8.095800e+01 2.085360e+02
124 8.641700e+01 1.000000e+01
125 8.641700e+01 2.890800e+01
126 8.641700e+01 4.781600e+01
127 8.641700e+01 6.672500e+01
128 8.641700e+01 8.563300e+01
129 8.641700e+01 1.234490e+02
130 8.641700e+01 1.423580e+02
131 8.641700e+01 1.612660e+02
132 8.641700e+01 2.179900e+02
133 9.187500e+01 1.945400e+01
134 9.187500e+01 3.836200e+01
135 9.187500e+01 5.727100e+01
136 9.187500e+01 7.617900e+01
137 9.187500e+01 9.508700e+01
138 9.187500e+01 1.139950e+02
139 9.187500e+01 1.329030e+02
140 9.187500e+01 1.518120e+02
141 9.187500e+01 1.707200e+02
142 9.187500e+01 2.085360e+02
143 9.733300e+01 1.000000e+01
144 9.733300e+01 2.890800e+01
145 9.733300e+01 4.781600e+01
146 9.733300e+01 6.672500e+01
147 9.733300e+01 1.234490e+02
148 9.733300e+01 1.612660e+02
149 9.733300e+01 1.801740e+02
150 9.733300e+01 1.990820e+02
151 1.027920e+02 1.945400e+01
152 1.027920e+02 3.836200e+01
153 1.027920e+02 7.617900e+01
154 1.027920e+02 9.508700e+01
155 1.027920e+02 1.139950e+02
156 1.027920e+02 1.518120e+02
157 1.027920e+02 1.896280e+02
158 1.027920e+02 2.085360e+02
159 1.082500e+02 1.000000e+01
160 1.082500e+02 6.672500e+01
161 1.082500e+02 1.234490e+02
162 1.082500e+02 1.612660e+02
163 1.082500e+02 1.990820e+02
164 1.082500e+02 2.179900e+02
165 1.137080e+02 1.945400e+01
166 1.137080e+02 5.727100e+01
167 1.137080e+02 7.617900e+01
168 1.137080e+02 9.508700e+01
169 1.137080e+02 1.139950e+02
170 1.137080e+02 1.329030e+02
171 1.137080e+02 1.518120e+02
172 1.137080e+02 1.896280e+02
173 1.137080e+02 2.085360e+02
174 1.191670e+02 2.890800e+01
175 1.191670e+02 8.563300e+01
176 1.191670e+02 1.234490e+02
177 1.191670e+02 1.423580e+02
178 1.191670e+02 1.612660e+02
179 1.191670e+02 1.801740e+02
180 1.191670e+02 1.990820e+02
181 1.246250e+02 1.945400e+01
182 1.246250e+02 3.836200e+01
183 1.246250e+02 7.617900e+01
184 1.246250e+02 9.508700e+01
185 1.246250e+02 1.139950e+02
186 1.246250e+02 1.329030e+02
187 1.246250e+02 1.518120e+02
188 1.246250e+02 1.707200e+02
189 1.246250e+02 1.896280e+02
190 1.246250e+02 2.085360e+02
191 1.300830e+02 1.000000e+01
192 1.300830e+02 2.890800e+01
193 1.300830e+02 4.781600e+01
194 1.300830e+02 6.672500e+01
195 1.300830e+02 8.563300e+01
196 1.300830e+02 1.045410e+02
197 1.300830e+02 1.234490e+02
198 1.300830e+02 1.423580e+02
199 1.300830e+02 1.612660e+02
200 1.300830e+02 2.179900e+02
EOF
